(set-option :produce-models true)
(set-logic QF_LIA)
(declare-const v0 Int)
(declare-const v1 Int)
(declare-const v2 Int)
(declare-const v3 Int)
(declare-const v4 Int)
(declare-const v5 Int)
(declare-const v6 Int)
(declare-const v7 Int)
(assert (= v0 0))
(assert (or(= v1 (mod (+ v0 1) 8))(= v3 (mod (+ v0 1) 8))))
(assert (or(= v0 (mod (+ v1 1) 8))(= v2 (mod (+ v1 1) 8))(= v4 (mod (+ v1 1) 8))))
(assert (or(= v1 (mod (+ v2 1) 8))(= v5 (mod (+ v2 1) 8))))
(assert (or(= v0 (mod (+ v3 1) 8))(= v4 (mod (+ v3 1) 8))(= v6 (mod (+ v3 1) 8))))
(assert (or(= v1 (mod (+ v4 1) 8))(= v3 (mod (+ v4 1) 8))(= v5 (mod (+ v4 1) 8))(= v7 (mod (+ v4 1) 8))))
(assert (or(= v2 (mod (+ v5 1) 8))(= v4 (mod (+ v5 1) 8))))
(assert (or(= v3 (mod (+ v6 1) 8))(= v7 (mod (+ v6 1) 8))))
(assert (or(= v4 (mod (+ v7 1) 8))(= v6 (mod (+ v7 1) 8))))
(check-sat)
(get-model)